Grasp exp. instance_n_15_m_5_id_4.lp tipoLifted 0 szPool 5 nIteration 50 alpha 0.8 
Academic license - for non-commercial use only
Read LP format model from file ../input/instancesGenerated/instance_n_15_m_5_id_4.lp
Reading time = 0.00 seconds
: 5 rows, 15 columns, 75 nonzeros
Optimize a model with 5 rows, 15 columns and 75 nonzeros
Variable types: 0 continuous, 15 integer (15 binary)
Coefficient statistics:
  Matrix range     [1e+00, 1e+01]
  Objective range  [1e+00, 1e+01]
  Bounds range     [1e+00, 1e+00]
  RHS range        [3e+01, 4e+01]
Found heuristic solution: objective 41.0000000

Explored 0 nodes (0 simplex iterations) in 0.00 seconds
Thread count was 1 (of 8 available processors)

Solution count 1: 41 
No other solutions better than 0

Solution limit reached
Best objective 4.100000000000e+01, best bound -, gap -
C_1:	 7.00 x_1  = 0.769921 + 4.00 x_2  = 0.000000 + 7.00 x_3  = 0.000000 + 3.00 x_4  = 0.825006 + 1.00 x_5  = 0.000000 + 3.00 x_6  = 1.000000 + 3.00 x_7  = 1.000000 + 9.00 x_8  = 0.000000 + 2.00 x_9  = 0.169101 + 2.00 x_10  = 1.000000 + 10.00 x_11  = 0.000000 + 2.00 x_12  = 0.404817 + 5.00 x_13  = 1.000000 + 6.00 x_14  = 1.000000 + 5.00 x_15  = 1.000000 <= 34.00
C_2:	 6.00 x_1  = 0.769921 + 3.00 x_2  = 0.000000 + 3.00 x_3  = 0.000000 + 3.00 x_4  = 0.825006 + 2.00 x_5  = 0.000000 + 5.00 x_6  = 1.000000 + 3.00 x_7  = 1.000000 + 6.00 x_8  = 0.000000 + 10.00 x_9  = 0.169101 + 4.00 x_10  = 1.000000 + 2.00 x_11  = 0.000000 + 3.00 x_12  = 0.404817 + 2.00 x_13  = 1.000000 + 2.00 x_14  = 1.000000 + 1.00 x_15  = 1.000000 <= 27.00
C_3:	 9.00 x_1  = 0.769921 + 8.00 x_2  = 0.000000 + 6.00 x_3  = 0.000000 + 7.00 x_4  = 0.825006 + 1.00 x_5  = 0.000000 + 6.00 x_6  = 1.000000 + 1.00 x_7  = 1.000000 + 5.00 x_8  = 0.000000 + 4.00 x_9  = 0.169101 + 4.00 x_10  = 1.000000 + 6.00 x_11  = 0.000000 + 4.00 x_12  = 0.404817 + 5.00 x_13  = 1.000000 + 3.00 x_14  = 1.000000 + 1.00 x_15  = 1.000000 <= 35.00
C_4:	 2.00 x_1  = 0.769921 + 8.00 x_2  = 0.000000 + 6.00 x_3  = 0.000000 + 6.00 x_4  = 0.825006 + 2.00 x_5  = 0.000000 + 7.00 x_6  = 1.000000 + 2.00 x_7  = 1.000000 + 4.00 x_8  = 0.000000 + 4.00 x_9  = 0.169101 + 1.00 x_10  = 1.000000 + 8.00 x_11  = 0.000000 + 7.00 x_12  = 0.404817 + 6.00 x_13  = 1.000000 + 1.00 x_14  = 1.000000 + 9.00 x_15  = 1.000000 <= 36.00
C_5:	 6.00 x_1  = 0.769921 + 9.00 x_2  = 0.000000 + 6.00 x_3  = 0.000000 + 1.00 x_4  = 0.825006 + 7.00 x_5  = 0.000000 + 8.00 x_6  = 1.000000 + 6.00 x_7  = 1.000000 + 8.00 x_8  = 0.000000 + 3.00 x_9  = 0.169101 + 1.00 x_10  = 1.000000 + 1.00 x_11  = 0.000000 + 10.00 x_12  = 0.404817 + 6.00 x_13  = 1.000000 + 8.00 x_14  = 1.000000 + 2.00 x_15  = 1.000000 <= 41.00
Solution initial: 59.863951 
Number Constraints Used in Cover:5
GRASP Method!
Number cuts repeat: 0
value: 59.863951
Number Constraints Used in Cover:12
GRASP Method!
Number cuts repeat: 0
value: 59.863951
Number Constraints Used in Cover:16
GRASP Method!
Number cuts repeat: 0
value: 59.863951
Number Constraints Used in Cover:22
GRASP Method!
Number cuts repeat: 0
value: 59.863951
Number Constraints Used in Cover:24
GRASP Method!
Number cuts repeat: 0
value: 59.863951
Number Constraints Used in Cover:28
GRASP Method!
Number cuts repeat: 0
value: 59.863951
Number Constraints Used in Cover:32
GRASP Method!
Number cuts repeat: 0
value: 59.863951
Number Constraints Used in Cover:44
GRASP Method!
Number cuts repeat: 0
value: 59.863951
Number Constraints Used in Cover:60
GRASP Method!
Number cuts repeat: 0
value: 59.863951
Number Constraints Used in Cover:68
GRASP Method!
Number cuts repeat: 0
value: 59.863951
Number Constraints Used in Cover:76
GRASP Method!
Number cuts repeat: 0
value: 59.863951
Number Constraints Used in Cover:78
GRASP Method!
Number cuts repeat: 0
value: 59.863951
Number Constraints Used in Cover:79
GRASP Method!
Number cuts repeat: 0
value: 59.863951
Number Constraints Used in Cover:81
GRASP Method!
Number cuts repeat: 0
value: 59.863951
Number Constraints Used in Cover:90
GRASP Method!
Number cuts repeat: 0
value: 59.863951
Number Constraints Used in Cover:93
GRASP Method!
Number cuts repeat: 0
value: 59.863951
Number Constraints Used in Cover:96
GRASP Method!
Number cuts repeat: 0
value: 59.863951
Number Constraints Used in Cover:101
GRASP Method!
Number cuts repeat: 0
value: 59.863951
Number Constraints Used in Cover:112
GRASP Method!
Number cuts repeat: 0
value: 59.863951
Number Constraints Used in Cover:113
GRASP Method!
Number cuts repeat: 0
value: 59.863951
Number Constraints Used in Cover:118
GRASP Method!
Number cuts repeat: 0
value: 59.863951
Number Constraints Used in Cover:118
GRASP Method!
Number cuts repeat: 0
value: 59.863951
Number Constraints Used in Cover:119
GRASP Method!
Number cuts repeat: 0
value: 59.863951
Number Constraints Used in Cover:126
GRASP Method!
Number cuts repeat: 0
value: 59.863951
Number Constraints Used in Cover:129
GRASP Method!
Number cuts repeat: 0
value: 59.863951
Number Constraints Used in Cover:136
GRASP Method!
Number cuts repeat: 0
value: 59.863951
Number Constraints Used in Cover:142
GRASP Method!
Number cuts repeat: 0
value: 59.863951
Number Constraints Used in Cover:145
GRASP Method!
Number cuts repeat: 0
value: 59.863951
Number Constraints Used in Cover:154
GRASP Method!
Number cuts repeat: 0
value: 59.863951
Number Constraints Used in Cover:160
GRASP Method!
Number cuts repeat: 0
value: 59.863951
Number Constraints Used in Cover:164
GRASP Method!
Number cuts repeat: 0
value: 59.863951
Number Constraints Used in Cover:170
GRASP Method!
Number cuts repeat: 0
value: 59.863951
Number Constraints Used in Cover:172
GRASP Method!
Number cuts repeat: 0
value: 59.863951
Number Constraints Used in Cover:176
GRASP Method!
Number cuts repeat: 0
value: 59.863951
Number Constraints Used in Cover:179
GRASP Method!
Number cuts repeat: 0
value: 59.863951
Number Constraints Used in Cover:180
GRASP Method!
Number cuts repeat: 0
value: 59.863951
Number Constraints Used in Cover:180
GRASP Method!
Number cuts repeat: 0
value: 59.863951
Number Constraints Used in Cover:184
GRASP Method!
Number cuts repeat: 0
value: 59.863951
Number Constraints Used in Cover:191
GRASP Method!
Number cuts repeat: 0
value: 59.863951
Number Constraints Used in Cover:191
GRASP Method!
Number cuts repeat: 0
value: 59.863951
Number Constraints Used in Cover:191
GRASP Method!
Number cuts repeat: 0
value: 59.863951
Number Constraints Used in Cover:194
GRASP Method!
Number cuts repeat: 0
value: 59.863951
Number Constraints Used in Cover:199
GRASP Method!
Number cuts repeat: 0
value: 59.863951
Number Constraints Used in Cover:199
GRASP Method!
Number cuts repeat: 0
value: 59.863951
Number Constraints Used in Cover:204
GRASP Method!
Number cuts repeat: 0
value: 59.863951
Number Constraints Used in Cover:205
GRASP Method!
Number cuts repeat: 0
value: 59.863951
Number Constraints Used in Cover:205
GRASP Method!
Number cuts repeat: 0
value: 59.863951
Number Constraints Used in Cover:207
GRASP Method!
Number cuts repeat: 0
value: 59.863951
Number Constraints Used in Cover:213
GRASP Method!
Number cuts repeat: 0
value: 59.863951
Number Constraints Used in Cover:217
GRASP Method!
Number cuts repeat: 0
value: 59.863951
Number Constraints Used in Cover:225
GRASP Method!
Number cuts repeat: 0
value: 59.863951
Number Constraints Used in Cover:229
GRASP Method!
Number cuts repeat: 0
value: 59.863951
Number Constraints Used in Cover:234
GRASP Method!
Number cuts repeat: 0
value: 59.863951
Number Constraints Used in Cover:237
GRASP Method!
Number cuts repeat: 0
value: 59.863951
Number Constraints Used in Cover:243
GRASP Method!
Number cuts repeat: 0
value: 59.863951
Number Constraints Used in Cover:244
GRASP Method!
Number cuts repeat: 0
value: 59.863951
Number Constraints Used in Cover:249
GRASP Method!
Number cuts repeat: 0
value: 59.863951
Number Constraints Used in Cover:254
GRASP Method!
Number cuts repeat: 0
value: 59.863951
Number Constraints Used in Cover:258
GRASP Method!
Number cuts repeat: 0
value: 59.863951
Number Constraints Used in Cover:262
GRASP Method!
Number cuts repeat: 0
value: 59.863951
Number Constraints Used in Cover:268
GRASP Method!
Number cuts repeat: 0
value: 59.863951
Number Constraints Used in Cover:270
GRASP Method!
Number cuts repeat: 0
value: 59.863951
Number Constraints Used in Cover:274
GRASP Method!
Number cuts repeat: 0
value: 59.863951
Number Constraints Used in Cover:279
GRASP Method!
Number cuts repeat: 0
value: 59.863951
Number Constraints Used in Cover:281
GRASP Method!
Number cuts repeat: 0
value: 59.863951
Number Constraints Used in Cover:285
GRASP Method!
Number cuts repeat: 0
value: 59.863951
Number Constraints Used in Cover:286
GRASP Method!
Number cuts repeat: 0
value: 59.863951
Number Constraints Used in Cover:290
GRASP Method!
Number cuts repeat: 0
value: 59.863951
Number Constraints Used in Cover:293
GRASP Method!
Number cuts repeat: 0
value: 59.863951
Number Constraints Used in Cover:293
GRASP Method!
Number cuts repeat: 0
value: 59.863951
Number Constraints Used in Cover:298
GRASP Method!
Number cuts repeat: 0
value: 59.863951
Number Constraints Used in Cover:303
GRASP Method!
Number cuts repeat: 0
value: 59.863951
Number Constraints Used in Cover:307
GRASP Method!
Number cuts repeat: 0
value: 59.863951
Number Constraints Used in Cover:313
GRASP Method!
Number cuts repeat: 0
value: 59.863951
Number Constraints Used in Cover:316
GRASP Method!
Number cuts repeat: 0
value: 59.863951
Number Constraints Used in Cover:321
GRASP Method!
Number cuts repeat: 0
value: 59.863951
Number Constraints Used in Cover:322
GRASP Method!
Number cuts repeat: 0
value: 59.863951
Number Constraints Used in Cover:325
GRASP Method!
Number cuts repeat: 0
value: 59.863951
Number Constraints Used in Cover:327
GRASP Method!
Number cuts repeat: 0
value: 59.863951
Number Constraints Used in Cover:328
GRASP Method!
Number cuts repeat: 0
value: 59.863951
Number Constraints Used in Cover:330
GRASP Method!
Number cuts repeat: 0
value: 59.863951
Number Constraints Used in Cover:335
GRASP Method!
Number cuts repeat: 0
value: 59.863951
Number Constraints Used in Cover:335
GRASP Method!
Number cuts repeat: 0
value: 59.863951
Number Constraints Used in Cover:336
GRASP Method!
Number cuts repeat: 0
value: 59.863951
Number Constraints Used in Cover:339
GRASP Method!
Number cuts repeat: 0
value: 59.863951
Number Constraints Used in Cover:342
GRASP Method!
Number cuts repeat: 0
value: 59.863951
Number Constraints Used in Cover:346
GRASP Method!
Number cuts repeat: 0
value: 59.863951
Number Constraints Used in Cover:352
GRASP Method!
Number cuts repeat: 0
value: 59.863951
Number Constraints Used in Cover:358
GRASP Method!
Number cuts repeat: 0
value: 59.863951
Number Constraints Used in Cover:364
GRASP Method!
Number cuts repeat: 0
value: 59.863951
Number Constraints Used in Cover:373
GRASP Method!
Number cuts repeat: 0
value: 59.863951
Number Constraints Used in Cover:378
GRASP Method!
Number cuts repeat: 0
value: 59.863951
Number Constraints Used in Cover:389
GRASP Method!
Number cuts repeat: 0
value: 59.863951
Number Constraints Used in Cover:397
GRASP Method!
Number cuts repeat: 0
value: 59.863951
Number Constraints Used in Cover:411
GRASP Method!
Number cuts repeat: 0
value: 59.863951
Number Constraints Used in Cover:417
GRASP Method!
Number cuts repeat: 0
value: 59.863951
Number Constraints Used in Cover:428
GRASP Method!
Number cuts repeat: 0
value: 59.863951
Number Constraints Used in Cover:429
GRASP Method!
Number cuts repeat: 0
value: 59.863951
Number Constraints Used in Cover:446
GRASP Method!
Number cuts repeat: 0
value: 59.863951
Number Constraints Used in Cover:452
GRASP Method!
Number cuts repeat: 0
value: 59.863951
Number Constraints Used in Cover:464
GRASP Method!
Number cuts repeat: 0
value: 59.863951
Number Constraints Used in Cover:469
GRASP Method!
Number cuts repeat: 0
value: 59.863951
Number Constraints Used in Cover:476
GRASP Method!
Number cuts repeat: 0
value: 59.863951
Number Constraints Used in Cover:487
GRASP Method!
Number cuts repeat: 0
value: 59.863951
Number Constraints Used in Cover:495
GRASP Method!
Number cuts repeat: 0
value: 59.863951
Number Constraints Used in Cover:501
GRASP Method!
Number cuts repeat: 0
value: 59.863951
Number Constraints Used in Cover:507
GRASP Method!
Number cuts repeat: 0
value: 59.863951
Number Constraints Used in Cover:514
GRASP Method!
Number cuts repeat: 0
value: 59.863951
Number Constraints Used in Cover:524
GRASP Method!
Number cuts repeat: 0
value: 59.863951
Number Constraints Used in Cover:533
GRASP Method!
Number cuts repeat: 0
value: 59.863951
Number Constraints Used in Cover:536
GRASP Method!
Number cuts repeat: 0
value: 59.863951
Number Constraints Used in Cover:537
GRASP Method!
Number cuts repeat: 0
value: 59.863951
Number Constraints Used in Cover:540
GRASP Method!
Number cuts repeat: 0
value: 59.863951
Number Constraints Used in Cover:542
GRASP Method!
Number cuts repeat: 0
value: 59.863951
Number Constraints Used in Cover:547
GRASP Method!
Number cuts repeat: 0
value: 59.863951
Number Constraints Used in Cover:547
GRASP Method!
Number cuts repeat: 0
value: 59.863951
Number Constraints Used in Cover:552
GRASP Method!
Number cuts repeat: 0
value: 59.863951
Number Constraints Used in Cover:559
GRASP Method!
Number cuts repeat: 0
value: 59.863951
Number Constraints Used in Cover:568
GRASP Method!
Number cuts repeat: 0
value: 59.863951
Number Constraints Used in Cover:575
GRASP Method!
Number cuts repeat: 0
value: 59.863951
Number Constraints Used in Cover:581
GRASP Method!
Number cuts repeat: 0
value: 59.863951
Number Constraints Used in Cover:584
GRASP Method!
Number cuts repeat: 0
value: 59.863951
Number Constraints Used in Cover:584
GRASP Method!
Number cuts repeat: 0
value: 59.863951
Number Constraints Used in Cover:587
GRASP Method!
Number cuts repeat: 0
value: 59.863951
Number Constraints Used in Cover:591
GRASP Method!
Number cuts repeat: 0
value: 59.863951
Number Constraints Used in Cover:600
GRASP Method!
Number cuts repeat: 0
value: 59.863951
Number Constraints Used in Cover:604
GRASP Method!
Number cuts repeat: 0
value: 59.863951
Number Constraints Used in Cover:605
GRASP Method!
Number cuts repeat: 0
value: 59.863951
Number Constraints Used in Cover:612
GRASP Method!
Number cuts repeat: 0
value: 59.863951
Number Constraints Used in Cover:616
GRASP Method!
Number cuts repeat: 0
value: 59.863951
Number Constraints Used in Cover:619
GRASP Method!
Number cuts repeat: 0
value: 59.863951
Number Constraints Used in Cover:623
GRASP Method!
Number cuts repeat: 0
value: 59.863951
Number Constraints Used in Cover:623
GRASP Method!
Number cuts repeat: 0
value: 59.863951
Number Constraints Used in Cover:626
GRASP Method!
Number cuts repeat: 0
value: 59.863951
Number Constraints Used in Cover:629
GRASP Method!
Number cuts repeat: 0
value: 59.863951
Number Constraints Used in Cover:638
GRASP Method!
Number cuts repeat: 0
value: 59.863951
Number Constraints Used in Cover:643
GRASP Method!
Number cuts repeat: 0
value: 59.863951
Number Constraints Used in Cover:647
GRASP Method!
Number cuts repeat: 0
value: 59.863951
Number Constraints Used in Cover:653
GRASP Method!
Number cuts repeat: 0
value: 59.863951
Number Constraints Used in Cover:660
GRASP Method!
Number cuts repeat: 0
value: 59.863951
Number Constraints Used in Cover:666
GRASP Method!
Number cuts repeat: 0
value: 59.863951
Number Constraints Used in Cover:668
GRASP Method!
Number cuts repeat: 0
value: 59.863951
Number Constraints Used in Cover:671
GRASP Method!
Number cuts repeat: 0
value: 59.863951
Number Constraints Used in Cover:675
GRASP Method!
Number cuts repeat: 0
value: 59.863951
Number Constraints Used in Cover:677
GRASP Method!
Number cuts repeat: 0
value: 59.863951
Number Constraints Used in Cover:681
GRASP Method!
Number cuts repeat: 0
value: 59.863951
Number Constraints Used in Cover:684
GRASP Method!
Number cuts repeat: 0
value: 59.863951
Number Cuts Final: 686
